
Gurobi 9.5.0 (linux64) logging started Wed Nov  8 21:26:59 2023

Set parameter LogFile to value "/lustre1/scratch/348/vsc34888/JointResearch/05.Models/06.Benchmarking/G.Representative_days_based_on_Line_Benefit_NN_OC_fy_2/3-bus_ByStages_nc60/openStarNet_3-bus_ByStages_nc60.log"
Set parameter Method to value 2
Set parameter MIPFocus to value 1
Set parameter Presolve to value 2
Set parameter RINS to value 100
Set parameter MIPGap to value 0.01
Set parameter Threads to value 36
Set parameter TimeLimit to value 604800
Set parameter IterationLimit to value 760000000
Gurobi Optimizer version 9.5.0 build v9.5.0rc5 (linux64)
Thread count: 36 physical cores, 36 logical processors, using up to 36 threads
Optimize a model with 3963 rows, 1787 columns and 11396 nonzeros
Model fingerprint: 0x75b3d0af
Variable types: 1778 continuous, 9 integer (9 binary)
Coefficient statistics:
  Matrix range     [1e-02, 8e+02]
  Objective range  [1e+00, 1e+00]
  Bounds range     [8e-06, 2e+00]
  RHS range        [8e-06, 1e+00]
Presolve removed 1443 rows and 424 columns
Presolve time: 0.01s
Presolved: 2520 rows, 1363 columns, 8914 nonzeros
Variable types: 1354 continuous, 9 integer (9 binary)
Found heuristic solution: objective 73.2931461
Root relaxation presolved: 2520 rows, 1363 columns, 8914 nonzeros

Root barrier log...

Ordering time: 0.00s

Barrier statistics:
 Dense cols : 9
 AA' NZ     : 2.232e+04
 Factor NZ  : 5.056e+04 (roughly 2 MB of memory)
 Factor Ops : 1.101e+06 (less than 1 second per iteration)
 Threads    : 1

                  Objective                Residual
Iter       Primal          Dual         Primal    Dual     Compl     Time
   0   3.77940976e+05 -1.02789902e+08  1.53e+01 1.82e+02  3.22e+04     0s
   1   2.36730792e+04 -2.06039031e+06  1.01e+00 1.45e-09  1.04e+03     0s
   2   2.03715436e+03 -6.55292453e+05  2.09e-02 9.79e-10  1.41e+02     0s
   3   1.42496598e+03 -1.14181059e+04  1.95e-04 9.85e-11  2.63e+00     0s
   4   2.83481291e+02 -2.73362148e+03  6.06e-06 2.05e-11  6.18e-01     0s
   5   1.25269069e+02 -5.79162838e+02  1.48e-07 3.72e-12  1.44e-01     0s
   6   8.59667571e+01 -9.25876359e+01  2.43e-08 1.82e-12  3.65e-02     0s
   7   7.55737237e+01  2.01046179e+01  7.58e-09 9.09e-13  1.14e-02     0s
   8   6.83721898e+01  5.19007441e+01  1.85e-09 9.09e-13  3.37e-03     0s
   9   6.59303688e+01  6.05518547e+01  8.53e-10 9.09e-13  1.10e-03     0s
  10   6.50258401e+01  6.24678363e+01  5.23e-10 4.55e-13  5.24e-04     0s
  11   6.44890006e+01  6.29245147e+01  2.98e-10 9.09e-13  3.20e-04     0s
  12   6.41991450e+01  6.34228175e+01  1.68e-10 9.09e-13  1.59e-04     0s
  13   6.41124093e+01  6.34801971e+01  1.11e-10 9.09e-13  1.29e-04     0s
  14   6.40132427e+01  6.38200348e+01  3.96e-10 9.09e-13  3.95e-05     0s
  15   6.39954145e+01  6.38293354e+01  2.04e-10 1.82e-12  3.40e-05     0s
  16   6.39807131e+01  6.39400419e+01  6.69e-11 9.09e-13  8.32e-06     0s
  17   6.39724725e+01  6.39717527e+01  2.87e-10 1.82e-12  1.47e-07     0s
  18   6.39723219e+01  6.39723219e+01  1.05e-11 9.09e-13  1.09e-12     0s

Barrier solved model in 18 iterations and 0.07 seconds (0.05 work units)
Optimal objective 6.39723219e+01


Root relaxation: objective 6.397232e+01, 245 iterations, 0.05 seconds (0.04 work units)

    Nodes    |    Current Node    |     Objective Bounds      |     Work
 Expl Unexpl |  Obj  Depth IntInf | Incumbent    BestBd   Gap | It/Node Time

     0     0   63.97232    0    3   73.29315   63.97232  12.7%     -    0s
H    0     0                      64.3660975   63.97232  0.61%     -    0s

Cutting planes:
  Gomory: 1
  MIR: 69

Explored 1 nodes (245 simplex iterations) in 0.10 seconds (0.07 work units)
Thread count was 36 (of 36 available processors)

Solution count 2: 64.3661 73.2931 

Optimal solution found (tolerance 1.00e-02)
Best objective 6.436609749249e+01, best bound 6.397232192079e+01, gap 0.6118%

Gurobi 9.5.0 (linux64) logging started Wed Nov  8 21:26:59 2023

Set parameter LogFile to value "/lustre1/scratch/348/vsc34888/JointResearch/05.Models/06.Benchmarking/G.Representative_days_based_on_Line_Benefit_NN_OC_fy_2/3-bus_ByStages_nc60/openStarNet_3-bus_ByStages_nc60.log"
Set parameter Method to value 2
Set parameter MIPFocus to value 1
Set parameter Presolve to value 2
Set parameter RINS to value 100
Set parameter MIPGap to value 0.01
Set parameter Threads to value 36
Set parameter TimeLimit to value 604800
Set parameter IterationLimit to value 760000000
No parameters matching 'relax_integrality' found
Gurobi Optimizer version 9.5.0 build v9.5.0rc5 (linux64)
Thread count: 36 physical cores, 36 logical processors, using up to 36 threads
Optimize a model with 3963 rows, 1778 columns and 9227 nonzeros
Model fingerprint: 0x400bb91e
Coefficient statistics:
  Matrix range     [1e-02, 8e+02]
  Objective range  [1e+00, 1e+00]
  Bounds range     [8e-06, 2e+00]
  RHS range        [8e-06, 2e+00]
Presolve removed 3543 rows and 964 columns
Presolve time: 0.00s
Presolved: 420 rows, 814 columns, 1594 nonzeros

Ordering time: 0.00s

Barrier statistics:
 AA' NZ     : 1.020e+03
 Factor NZ  : 1.680e+03 (roughly 1 MB of memory)
 Factor Ops : 8.400e+03 (less than 1 second per iteration)
 Threads    : 1

                  Objective                Residual
Iter       Primal          Dual         Primal    Dual     Compl     Time
   0   7.60021008e+05 -9.62376357e+07  3.50e+01 6.10e+02  8.90e+04     0s
   1   4.17039620e+04 -1.43973583e+06  2.38e+00 3.64e-12  2.42e+03     0s
   2   2.36277155e+03 -2.45014577e+05  2.63e-02 1.18e-11  1.65e+02     0s
   3   1.37961454e+03 -3.84447189e+03  1.63e-04 2.46e-12  3.21e+00     0s
   4   4.65409554e+02 -2.34471708e+03  2.99e-05 9.76e-12  1.73e+00     0s
   5   2.63000067e+02 -8.41239787e+02  1.01e-05 5.21e-12  6.78e-01     0s
   6   1.52667851e+02 -2.36299577e+02  2.25e-06 3.39e-12  2.39e-01     0s
   7   1.12878918e+02 -4.24006331e+01  8.46e-07 1.57e-12  9.54e-02     0s
   8   7.72958226e+01  1.70831686e+01  1.55e-07 1.82e-12  3.70e-02     0s
   9   6.67023907e+01  5.96782001e+01  1.85e-08 1.01e-12  4.31e-03     0s
  10   6.47880273e+01  6.38693957e+01  2.54e-09 1.82e-12  5.64e-04     0s
  11   6.43912311e+01  6.43362680e+01  1.42e-10 9.09e-13  3.38e-05     0s
  12   6.43662702e+01  6.43635733e+01  6.72e-11 9.09e-13  1.66e-06     0s
  13   6.43660983e+01  6.43660941e+01  1.11e-10 4.55e-13  2.58e-09     0s
  14   6.43660975e+01  6.43660975e+01  3.55e-11 1.82e-12  2.60e-15     0s

Barrier solved model in 14 iterations and 0.01 seconds (0.01 work units)
Optimal objective 6.43660975e+01

Crossover log...

       0 DPushes remaining with DInf 0.0000000e+00                 0s

      60 PPushes remaining with PInf 0.0000000e+00                 0s
       0 PPushes remaining with PInf 0.0000000e+00                 0s

  Push phase complete: Pinf 0.0000000e+00, Dinf 1.2234658e-13      0s

Iteration    Objective       Primal Inf.    Dual Inf.      Time
      63    6.4366097e+01   0.000000e+00   0.000000e+00      0s

Solved in 63 iterations and 0.01 seconds (0.01 work units)
Optimal objective  6.436609749e+01
